nApps = 202
nRes = 9
nActs = 432
nNetworks = 6

assignmentToResources = [1,2,1,3,2,3,2,1,1,1,3,1,1,1,1,3,2,1,1,1,1,3,1,2,1,3,3,1,1,1,1,1,1,1,1,2,2,2,2,2,2,2,3,3,1,3,2,2,2,2,2,3,3,1,2,2,3,2,3,2,2,2,3,3,2,3,2,2,3,2,3,1,1,3,3,1,1,3,2,3,2,2,3,2,3,2,3,3,3,3,3,1,2,1,3,1,1,1,3,3,4,4,5,5,5,4,6,6,6,6,6,6,5,6,6,6,6,6,6,5,5,4,4,4,4,6,6,4,4,4,4,4,4,6,6,5,4,4,4,4,4,4,4,4,6,4,4,4,4,4,4,4,4,4,4,4,4,4,5,5,5,5,5,5,5,5,5,5,5,5,5,6,4,6,6,5,5,5,5,5,5,6,6,6,6,6,6,5,6,5,5,5,6,6,6,6,5,5,6,6,5,5,5,5,6,6,6,4,4,6,4,5,5,6,6,6,5,5,6,6,6,6,6,6,4,5,4,4,4,4,4,4,4,4,6,6,6,4,8,5,9,6,7,5,9,5,9,6,8,6,8,5,9,6,8,5,9,6,8,6,8,5,9,4,9,5,9,6,7,5,9,6,7,6,8,5,7,6,8,6,8,5,7,4,8,6,8,5,7,6,8,5,7,6,8,8,9,9,7,7,9,7,7,8,8,7,7,9,8,8,7,7,8,7,7,9,9,9,8,8,8,8,8,9,8,8,9,8,8,7,7,9,8,8,9,8,9,8,8,7,9,8,8,8,9,8,8,9,9,9,8,9,9,7,9,7,9,7,7,7,9,7,7,7,7,9,7,8,7,8,9,9,7,9,7,7,8,7,7,8,7,7,7,8,9,9,9,7,7,8,7,9,7,7,7,9,7,7,7,7,7,8,8,8,7,8,9,7,7,7,8,7,9,7,8,8,7,8,8,9,9,9,8,9,9,9,8,8,8,7,8,7];

processingTimes = [120,152,128,136,112,152,120,88,64,120,128,112,112,120,48,104,104,128,64,56,48,112,128,120,120,96,64,48,64,136,152,128,72,88,160,112,168,48,104,56,120,128,160,128,128,120,128,72,48,96,120,56,120,128,136,104,136,152,128,104,96,128,64,80,128,168,152,136,144,104,88,112,104,136,168,64,120,120,104,48,72,168,120,80,152,112,168,120,104,112,120,112,48,136,120,136,96,48,136,144,3,3,500,5,5,500,5,5,5,6,500,500,500,3,3,100,4,100,100,5,5,3,3,3,13,500,3,5,4,500,4,500,8,3,500,3,4,3,500,3,3,4,3,3,3,3,500,3,3,500,500,8,4,500,4,4,4,4,5,3,3,3,4,3,3,4,3,3,3,5,500,4,3,3,3,3,500,13,3,5,5,3,5,3,3,3,3,3,3,3,3,4,500,500,3,3,3,4,4,5,3,3,4,4,3,4,4,3,4,3,4,3,3,3,3,500,3,13,3,500,3,500,3,3,3,500,5,5,500,5,4,4,3,3,500,200,4,3,3,3,3,4,4,3,3,8,8,4,4,3,3,4,4,3,3,3,3,3,3,4,4,3,3,3,3,8,8,3,3,4,4,3,3,4,4,13,13,4,4,3,3,3,3,4,4,3,3,3,3,6,6,8,8,3,3,3,3,500,5,5,500,5,5,5,6,500,500,500,3,3,100,4,100,100,5,5,3,3,3,13,500,3,5,4,500,4,500,8,3,500,3,4,3,500,3,3,4,3,3,3,3,500,3,3,500,500,8,4,500,4,4,4,4,5,3,3,3,4,3,3,4,3,3,3,5,500,4,3,3,3,3,500,13,3,5,5,3,5,3,3,3,3,3,3,3,3,4,500,500,3,3,3,4,4,5,3,3,4,4,3,4,4,3,4,3,4,3,3,3,3,500,3,13,3,500,3,500,3,3,3,500,5,5,500,5,4,4,3,3,500,200,4];

periods = [10000,20000,10000,100000,100000,1000,1000,20000,20000,10000,100000,10000,10000,10000,20000,100000,100000,100000,20000,20000,20000,100000,100000,100000,10000,50000,20000,10000,10000,20000,20000,20000,20000,20000,2000,100000,50000,100000,100000,10000,100000,100000,10000,100000,10000,10000,10000,100000,10000,10000,20000,100000,10000,20000,100000,10000,50000,10000,50000,20000,20000,20000,10000,100000,20000,10000,50000,100000,20000,5000,100000,20000,10000,20000,100000,1000,100000,10000,10000,20000,100000,2000,10000,20000,100000,100000,10000,10000,20000,10000,20000,100000,100000,20000,10000,100000,20000,10000,100000,2000,10000,10000,20000,20000,20000,10000,100000,100000,100000,100000,100000,100000,100000,1000,1000,1000,1000,1000,1000,1000,1000,20000,20000,20000,10000,100000,100000,10000,10000,10000,10000,20000,20000,100000,100000,100000,100000,20000,20000,20000,20000,20000,10000,10000,50000,20000,20000,20000,20000,20000,20000,20000,20000,20000,20000,2000,2000,2000,100000,100000,100000,50000,50000,100000,100000,10000,100000,100000,100000,100000,100000,10000,10000,10000,10000,10000,10000,10000,20000,20000,20000,100000,100000,50000,50000,50000,50000,10000,50000,20000,20000,20000,10000,10000,10000,100000,20000,20000,10000,10000,50000,50000,5000,5000,100000,100000,100000,20000,20000,100000,1000,10000,10000,20000,20000,20000,100000,2000,10000,10000,100000,10000,10000,10000,100000,100000,20000,20000,20000,100000,20000,20000,10000,10000,100000,2000,2000,10000,10000,10000,10000,10000,10000,100000,100000,100000,100000,100000,100000,100000,100000,100000,100000,100000,100000,100000,100000,100000,100000,100000,100000,100000,100000,100000,100000,100000,100000,100000,100000,100000,100000,100000,100000,100000,100000,10000,10000,20000,20000,20000,20000,20000,20000,20000,20000,20000,20000,10000,10000,10000,10000,10000,10000,10000,10000,10000,10000,20000,20000,20000,10000,100000,100000,100000,100000,100000,100000,100000,1000,1000,1000,1000,1000,1000,1000,1000,20000,20000,20000,10000,100000,100000,10000,10000,10000,10000,20000,20000,100000,100000,100000,100000,20000,20000,20000,20000,20000,10000,10000,50000,20000,20000,20000,20000,20000,20000,20000,20000,20000,20000,2000,2000,2000,100000,100000,100000,50000,50000,100000,100000,10000,100000,100000,100000,100000,100000,10000,10000,10000,10000,10000,10000,10000,20000,20000,20000,100000,100000,50000,50000,50000,50000,10000,50000,20000,20000,20000,10000,10000,10000,100000,20000,20000,10000,10000,50000,50000,5000,5000,100000,100000,100000,20000,20000,100000,1000,10000,10000,20000,20000,20000,100000,2000,10000,10000,100000,10000,10000,10000,100000,100000,20000,20000,20000,100000,20000,20000,10000,10000,100000,2000,2000];

assignmentToClusters = [1,2,3,4,5,6,7,8,9,10,5,11,12,13,14,5,5,15,16,17,18,5,5,5,19,20,21,22,22,23,24,25,26,27,28,5,29,30,5,31,5,32,1,5,33,33,34,35,36,10,37,38,39,21,5,33,20,1,20,21,40,41,42,5,43,44,45,46,21,47,5,48,1,49,5,50,5,51,22,21,5,52,53,21,5,5,54,55,56,22,57,58,5,59,60,61,62,63,64,65,66,67,68,69,70,71,72,73,74,75,76,77,78,79,80,81,82,83,84,85,86,87,88,89,90,91,92,93,94,95,96,97,98,99,100,101,102,103,104,105,106,107,108,109,110,111,112,113,114,115,116,117,118,119,120,121,122,123,124,125,126,127,128,129,130,131,132,133,134,135,136,137,138,139,140,141,142,143,144,145,146,147,148,149,150,151,152,153,154,155,156,157,158,159,160,161,162,163,164,165,166,167,168,169,170,171,172,173,174,175,176,177,178,179,180,181,182,183,184,185,186,187,188,189,190,191,192,193,194,195,196,197,198,199,200,201,202,1,1,1,1,1,1,5,5,5,5,5,5,5,5,5,5,5,5,5,5,5,5,5,5,5,5,5,5,5,5,5,5,5,5,5,5,5,5,10,10,21,21,21,21,21,21,21,21,21,21,22,22,22,22,33,33,33,33,66,67,68,69,70,71,72,73,74,75,76,77,78,79,80,81,82,83,84,85,86,87,88,89,90,91,92,93,94,95,96,97,98,99,100,101,102,103,104,105,106,107,108,109,110,111,112,113,114,115,116,117,118,119,120,121,122,123,124,125,126,127,128,129,130,131,132,133,134,135,136,137,138,139,140,141,142,143,144,145,146,147,148,149,150,151,152,153,154,155,156,157,158,159,160,161,162,163,164,165,166,167,168,169,170,171,172,173,174,175,176,177,178,179,180,181,182,183,184,185,186,187,188,189,190,191,192,193,194,195,196,197,198,199,200,201,202];

precedenceAdjList = [[],[],[],[],[],[],[],[],[],[276],[43],[],[],[],[],[252],[40],[],[],[],[],[262,264,266],[268],[254],[],[56],[],[288],[27],[],[],[],[],[],[],[274],[],[],[250],[],[248],[],[240],[21,270],[292],[],[],[],[],[],[],[],[],[282],[],[294],[],[238],[25],[278,280],[],[],[],[],[],[],[],[],[],[],[],[],[242],[],[244,246],[],[272],[],[290],[],[92],[],[],[284,286],[256],[],[],[],[],[],[],[],[258,260],[],[],[],[],[],[],[],[],[],[],[],[],[],[],[],[],[],[],[],[],[],[],[],[],[],[],[],[],[],[],[],[],[],[],[],[],[],[],[],[],[],[],[],[],[],[],[],[],[],[],[],[],[],[],[],[],[],[],[],[],[],[],[],[],[],[],[],[],[],[],[],[],[],[],[],[],[],[],[],[],[],[],[],[],[],[],[],[],[],[],[],[],[],[],[],[],[],[],[],[],[],[],[],[],[],[],[],[],[],[],[],[],[],[],[],[],[],[],[],[],[],[],[],[],[],[],[],[],[],[],[],[],[],[],[],[],[],[],[],[],[],[],[],[],[0],[237],[57],[239],[42],[241],[16],[243],[4],[245],[70],[247],[74],[249],[38],[251],[15],[253],[38],[255],[84],[257],[63],[259],[54],[261],[22],[263],[80],[265],[74],[267],[85],[269],[43],[271],[10],[273],[49],[275],[26],[277],[68],[279],[59],[281],[53],[283],[79],[285],[78],[287],[89],[289],[55],[291],[45],[293],[100],[101],[102],[103],[104],[105],[106],[107],[108],[109],[110],[111],[112],[113],[114],[115],[116],[117],[118],[119],[120],[121],[122],[123],[124],[125],[126],[127],[128],[129],[130],[131],[132],[133],[134],[135],[136],[137],[138],[139],[140],[141],[142],[143],[144],[145],[146],[147],[148],[149],[150],[151],[152],[153],[154],[155],[156],[157],[158],[159],[160],[161],[162],[163],[164],[165],[166],[167],[168],[169],[170],[171],[172],[173],[174],[175],[176],[177],[178],[179],[180],[181],[182],[183],[184],[185],[186],[187],[188],[189],[190],[191],[192],[193],[194],[195],[196],[197],[198],[199],[200],[201],[202],[203],[204],[205],[206],[207],[208],[209],[210],[211],[212],[213],[214],[215],[216],[217],[218],[219],[220],[221],[222],[223],[224],[225],[226],[227],[228],[229],[230],[231],[232],[233],[234],[235],[236]];